(set-info :smt-lib-version 2.6)
(set-logic QF_S)
(set-info :source |
Generated by: Hung-En Wang, Tzung-Lin Tsai, Chun-Han Lin, Fang Yu, and Jie-Hong R. Jiang
Generated on: 2019-02-28
Generator: Stranger
Application: Security analysis of string manipulating web applications
Target solver: CVC4, Norn, Z3-str2
Publication:
Hung-En Wang, Tzung-Lin Tsai, Chun-Han Lin, Fang Yu, Jie-Hong R. Jiang:
String Analysis via Automata Manipulation with Logic Circuit Representation. CAV (1) 2016: 241-260.
|)
(set-info :license "https://creativecommons.org/licenses/by/4.0/")
(set-info :category "industrial")
(set-info :status unknown)

(declare-fun sigmaStar_0 () String)
(declare-fun x_8 () String)
(declare-fun epsilon () String)
(declare-fun literal_2 () String)
(declare-fun literal_1 () String)
(declare-fun literal_3 () String)
(declare-fun x_9 () String)
(assert (= epsilon ""))
(assert (= literal_2 ""))
(assert (= literal_1 ""))
(assert (or (= x_8 epsilon) (= x_8 literal_2) (= x_8 literal_1) (= x_8 sigmaStar_0)))
(assert (= literal_3 "\u{20}\u{20}\u{20}\u{20}"))
(assert (= x_9 (str.++ x_8 literal_3)))
(assert (str.in_re x_9 (re.++ (re.* re.allchar) (re.++ (str.to_re "\u{5c}\u{3c}\u{53}\u{43}\u{52}\u{49}\u{50}\u{54}") (re.* re.allchar)))))
(check-sat)
(exit)
